ID_groupA
28459
28459
1246
28459
28459
28459
28459
28459
28459
28459
28459
28459
28459
28459
6435
1246
1246
1246
1246
6435
1246
28459
1246
1246
1246
6435
1246
1246
1246
1246
6435
6435
6435
6435
6435
1246
28459
6435
6435
1246
1246
1246
1246
1246
1246
1246
1246
1246
6435
1246
80873
1246
1246
1246
28459
1246
1246
80873
6435
1246
1246
1246
1246
1246
1246
1246
1246
6435
1246
6435
1246
28459
28459
1246
28459
6435
28459
6435
6435
6435
1246
28459
6435
6435
6435
6435
1246
1246
6435
6435
28459
28459
28459
6435
28459
28459
28459
6435
6435
1246
6435
1246
28459
28459
6435
